row=9;
column=9;

Board=[|0,0,4,6,0,1,0,0,9|2,5,0,0,0,0,7,0,0|0,9,0,8,0,7,0,2,0|0,4,2,0,0,0,0,0,0|1,0,3,0,0,0,0,0,0|0,6,0,9,0,0,0,0,2|0,2,0,1,0,0,0,0,0|0,0,8,0,7,0,0,1,0|0,1,5,2,3,0,0,0,0|];
OE=[|0,1,0,0,0,1,1,1,1|0,1,0,0,1,1,1,0,1|1,1,1,0,1,1,0,0,0|1,0,0,1,0,1,1,0,1|1,0,1,1,0,0,0,1,1|1,0,1,1,1,0,0,1,0|0,0,1,1,0,0,1,1,1|0,1,0,1,1,1,0,1,0|1,1,1,0,1,0,1,0,0|];
